% Auto-generated by scripts/generate_dzn.py
% problem_type   = polyominoes
% instance       = polyominoes_69
% source_json    = instances_json/0_low_blowup/polyominoes_69.json
% blowup         = 0.6805251641137856
% representation = NFA

mode = 1;

size = 8;
tiles = 2;
n_expressions = 2;
Q = 394;
S = 3;
q0 = [1, 1];
F = [{73}, {57}];
d_dfa = array3d(1..2, 1..394, 1..3, [
  % k = 1
    0, 0, 0,
    0, 0, 0,
    0, 0, 0,
    0, 0, 0,
    0, 0, 0,
    0, 0, 0,
    0, 0, 0,
    0, 0, 0,
    0, 0, 0,
    0, 0, 0,
    0, 0, 0,
    0, 0, 0,
    0, 0, 0,
    0, 0, 0,
    0, 0, 0,
    0, 0, 0,
    0, 0, 0,
    0, 0, 0,
    0, 0, 0,
    0, 0, 0,
    0, 0, 0,
    0, 0, 0,
    0, 0, 0,
    0, 0, 0,
    0, 0, 0,
    0, 0, 0,
    0, 0, 0,
    0, 0, 0,
    0, 0, 0,
    0, 0, 0,
    0, 0, 0,
    0, 0, 0,
    0, 0, 0,
    0, 0, 0,
    0, 0, 0,
    0, 0, 0,
    0, 0, 0,
    0, 0, 0,
    0, 0, 0,
    0, 0, 0,
    0, 0, 0,
    0, 0, 0,
    0, 0, 0,
    0, 0, 0,
    0, 0, 0,
    0, 0, 0,
    0, 0, 0,
    0, 0, 0,
    0, 0, 0,
    0, 0, 0,
    0, 0, 0,
    0, 0, 0,
    0, 0, 0,
    0, 0, 0,
    0, 0, 0,
    0, 0, 0,
    0, 0, 0,
    0, 0, 0,
    0, 0, 0,
    0, 0, 0,
    0, 0, 0,
    0, 0, 0,
    0, 0, 0,
    0, 0, 0,
    0, 0, 0,
    0, 0, 0,
    0, 0, 0,
    0, 0, 0,
    0, 0, 0,
    0, 0, 0,
    0, 0, 0,
    0, 0, 0,
    0, 0, 0,
    0, 0, 0,
    0, 0, 0,
    0, 0, 0,
    0, 0, 0,
    0, 0, 0,
    0, 0, 0,
    0, 0, 0,
    0, 0, 0,
    0, 0, 0,
    0, 0, 0,
    0, 0, 0,
    0, 0, 0,
    0, 0, 0,
    0, 0, 0,
    0, 0, 0,
    0, 0, 0,
    0, 0, 0,
    0, 0, 0,
    0, 0, 0,
    0, 0, 0,
    0, 0, 0,
    0, 0, 0,
    0, 0, 0,
    0, 0, 0,
    0, 0, 0,
    0, 0, 0,
    0, 0, 0,
    0, 0, 0,
    0, 0, 0,
    0, 0, 0,
    0, 0, 0,
    0, 0, 0,
    0, 0, 0,
    0, 0, 0,
    0, 0, 0,
    0, 0, 0,
    0, 0, 0,
    0, 0, 0,
    0, 0, 0,
    0, 0, 0,
    0, 0, 0,
    0, 0, 0,
    0, 0, 0,
    0, 0, 0,
    0, 0, 0,
    0, 0, 0,
    0, 0, 0,
    0, 0, 0,
    0, 0, 0,
    0, 0, 0,
    0, 0, 0,
    0, 0, 0,
    0, 0, 0,
    0, 0, 0,
    0, 0, 0,
    0, 0, 0,
    0, 0, 0,
    0, 0, 0,
    0, 0, 0,
    0, 0, 0,
    0, 0, 0,
    0, 0, 0,
    0, 0, 0,
    0, 0, 0,
    0, 0, 0,
    0, 0, 0,
    0, 0, 0,
    0, 0, 0,
    0, 0, 0,
    0, 0, 0,
    0, 0, 0,
    0, 0, 0,
    0, 0, 0,
    0, 0, 0,
    0, 0, 0,
    0, 0, 0,
    0, 0, 0,
    0, 0, 0,
    0, 0, 0,
    0, 0, 0,
    0, 0, 0,
    0, 0, 0,
    0, 0, 0,
    0, 0, 0,
    0, 0, 0,
    0, 0, 0,
    0, 0, 0,
    0, 0, 0,
    0, 0, 0,
    0, 0, 0,
    0, 0, 0,
    0, 0, 0,
    0, 0, 0,
    0, 0, 0,
    0, 0, 0,
    0, 0, 0,
    0, 0, 0,
    0, 0, 0,
    0, 0, 0,
    0, 0, 0,
    0, 0, 0,
    0, 0, 0,
    0, 0, 0,
    0, 0, 0,
    0, 0, 0,
    0, 0, 0,
    0, 0, 0,
    0, 0, 0,
    0, 0, 0,
    0, 0, 0,
    0, 0, 0,
    0, 0, 0,
    0, 0, 0,
    0, 0, 0,
    0, 0, 0,
    0, 0, 0,
    0, 0, 0,
    0, 0, 0,
    0, 0, 0,
    0, 0, 0,
    0, 0, 0,
    0, 0, 0,
    0, 0, 0,
    0, 0, 0,
    0, 0, 0,
    0, 0, 0,
    0, 0, 0,
    0, 0, 0,
    0, 0, 0,
    0, 0, 0,
    0, 0, 0,
    0, 0, 0,
    0, 0, 0,
    0, 0, 0,
    0, 0, 0,
    0, 0, 0,
    0, 0, 0,
    0, 0, 0,
    0, 0, 0,
    0, 0, 0,
    0, 0, 0,
    0, 0, 0,
    0, 0, 0,
    0, 0, 0,
    0, 0, 0,
    0, 0, 0,
    0, 0, 0,
    0, 0, 0,
    0, 0, 0,
    0, 0, 0,
    0, 0, 0,
    0, 0, 0,
    0, 0, 0,
    0, 0, 0,
    0, 0, 0,
    0, 0, 0,
    0, 0, 0,
    0, 0, 0,
    0, 0, 0,
    0, 0, 0,
    0, 0, 0,
    0, 0, 0,
    0, 0, 0,
    0, 0, 0,
    0, 0, 0,
    0, 0, 0,
    0, 0, 0,
    0, 0, 0,
    0, 0, 0,
    0, 0, 0,
    0, 0, 0,
    0, 0, 0,
    0, 0, 0,
    0, 0, 0,
    0, 0, 0,
    0, 0, 0,
    0, 0, 0,
    0, 0, 0,
    0, 0, 0,
    0, 0, 0,
    0, 0, 0,
    0, 0, 0,
    0, 0, 0,
    0, 0, 0,
    0, 0, 0,
    0, 0, 0,
    0, 0, 0,
    0, 0, 0,
    0, 0, 0,
    0, 0, 0,
    0, 0, 0,
    0, 0, 0,
    0, 0, 0,
    0, 0, 0,
    0, 0, 0,
    0, 0, 0,
    0, 0, 0,
    0, 0, 0,
    0, 0, 0,
    0, 0, 0,
    0, 0, 0,
    0, 0, 0,
    0, 0, 0,
    0, 0, 0,
    0, 0, 0,
    0, 0, 0,
    0, 0, 0,
    0, 0, 0,
    0, 0, 0,
    0, 0, 0,
    0, 0, 0,
    0, 0, 0,
    0, 0, 0,
    0, 0, 0,
    0, 0, 0,
    0, 0, 0,
    0, 0, 0,
    0, 0, 0,
    0, 0, 0,
    0, 0, 0,
    0, 0, 0,
    0, 0, 0,
    0, 0, 0,
    0, 0, 0,
    0, 0, 0,
    0, 0, 0,
    0, 0, 0,
    0, 0, 0,
    0, 0, 0,
    0, 0, 0,
    0, 0, 0,
    0, 0, 0,
    0, 0, 0,
    0, 0, 0,
    0, 0, 0,
    0, 0, 0,
    0, 0, 0,
    0, 0, 0,
    0, 0, 0,
    0, 0, 0,
    0, 0, 0,
    0, 0, 0,
    0, 0, 0,
    0, 0, 0,
    0, 0, 0,
    0, 0, 0,
    0, 0, 0,
    0, 0, 0,
    0, 0, 0,
    0, 0, 0,
    0, 0, 0,
    0, 0, 0,
    0, 0, 0,
    0, 0, 0,
    0, 0, 0,
    0, 0, 0,
    0, 0, 0,
    0, 0, 0,
    0, 0, 0,
    0, 0, 0,
    0, 0, 0,
    0, 0, 0,
    0, 0, 0,
    0, 0, 0,
    0, 0, 0,
    0, 0, 0,
    0, 0, 0,
    0, 0, 0,
    0, 0, 0,
    0, 0, 0,
    0, 0, 0,
    0, 0, 0,
    0, 0, 0,
    0, 0, 0,
    0, 0, 0,
    0, 0, 0,
    0, 0, 0,
    0, 0, 0,
    0, 0, 0,
    0, 0, 0,
    0, 0, 0,
    0, 0, 0,
    0, 0, 0,
    0, 0, 0,
    0, 0, 0,
    0, 0, 0,
    0, 0, 0,
    0, 0, 0,
    0, 0, 0,
    0, 0, 0,
    0, 0, 0,
    0, 0, 0,
    0, 0, 0,
    0, 0, 0,
    0, 0, 0,
    0, 0, 0,
    0, 0, 0,
    0, 0, 0,
    0, 0, 0,
    0, 0, 0,
    0, 0, 0,
    0, 0, 0,
    0, 0, 0,
    0, 0, 0,
    0, 0, 0,
    0, 0, 0,
    0, 0, 0,
    0, 0, 0,
    0, 0, 0,
    0, 0, 0,
    0, 0, 0,
    0, 0, 0,
    0, 0, 0,
    0, 0, 0,
    0, 0, 0,
    0, 0, 0,
    0, 0, 0,
    0, 0, 0,
    0, 0, 0,
    0, 0, 0,
    0, 0, 0,

  % k = 2
    0, 0, 0,
    0, 0, 0,
    0, 0, 0,
    0, 0, 0,
    0, 0, 0,
    0, 0, 0,
    0, 0, 0,
    0, 0, 0,
    0, 0, 0,
    0, 0, 0,
    0, 0, 0,
    0, 0, 0,
    0, 0, 0,
    0, 0, 0,
    0, 0, 0,
    0, 0, 0,
    0, 0, 0,
    0, 0, 0,
    0, 0, 0,
    0, 0, 0,
    0, 0, 0,
    0, 0, 0,
    0, 0, 0,
    0, 0, 0,
    0, 0, 0,
    0, 0, 0,
    0, 0, 0,
    0, 0, 0,
    0, 0, 0,
    0, 0, 0,
    0, 0, 0,
    0, 0, 0,
    0, 0, 0,
    0, 0, 0,
    0, 0, 0,
    0, 0, 0,
    0, 0, 0,
    0, 0, 0,
    0, 0, 0,
    0, 0, 0,
    0, 0, 0,
    0, 0, 0,
    0, 0, 0,
    0, 0, 0,
    0, 0, 0,
    0, 0, 0,
    0, 0, 0,
    0, 0, 0,
    0, 0, 0,
    0, 0, 0,
    0, 0, 0,
    0, 0, 0,
    0, 0, 0,
    0, 0, 0,
    0, 0, 0,
    0, 0, 0,
    0, 0, 0,
    0, 0, 0,
    0, 0, 0,
    0, 0, 0,
    0, 0, 0,
    0, 0, 0,
    0, 0, 0,
    0, 0, 0,
    0, 0, 0,
    0, 0, 0,
    0, 0, 0,
    0, 0, 0,
    0, 0, 0,
    0, 0, 0,
    0, 0, 0,
    0, 0, 0,
    0, 0, 0,
    0, 0, 0,
    0, 0, 0,
    0, 0, 0,
    0, 0, 0,
    0, 0, 0,
    0, 0, 0,
    0, 0, 0,
    0, 0, 0,
    0, 0, 0,
    0, 0, 0,
    0, 0, 0,
    0, 0, 0,
    0, 0, 0,
    0, 0, 0,
    0, 0, 0,
    0, 0, 0,
    0, 0, 0,
    0, 0, 0,
    0, 0, 0,
    0, 0, 0,
    0, 0, 0,
    0, 0, 0,
    0, 0, 0,
    0, 0, 0,
    0, 0, 0,
    0, 0, 0,
    0, 0, 0,
    0, 0, 0,
    0, 0, 0,
    0, 0, 0,
    0, 0, 0,
    0, 0, 0,
    0, 0, 0,
    0, 0, 0,
    0, 0, 0,
    0, 0, 0,
    0, 0, 0,
    0, 0, 0,
    0, 0, 0,
    0, 0, 0,
    0, 0, 0,
    0, 0, 0,
    0, 0, 0,
    0, 0, 0,
    0, 0, 0,
    0, 0, 0,
    0, 0, 0,
    0, 0, 0,
    0, 0, 0,
    0, 0, 0,
    0, 0, 0,
    0, 0, 0,
    0, 0, 0,
    0, 0, 0,
    0, 0, 0,
    0, 0, 0,
    0, 0, 0,
    0, 0, 0,
    0, 0, 0,
    0, 0, 0,
    0, 0, 0,
    0, 0, 0,
    0, 0, 0,
    0, 0, 0,
    0, 0, 0,
    0, 0, 0,
    0, 0, 0,
    0, 0, 0,
    0, 0, 0,
    0, 0, 0,
    0, 0, 0,
    0, 0, 0,
    0, 0, 0,
    0, 0, 0,
    0, 0, 0,
    0, 0, 0,
    0, 0, 0,
    0, 0, 0,
    0, 0, 0,
    0, 0, 0,
    0, 0, 0,
    0, 0, 0,
    0, 0, 0,
    0, 0, 0,
    0, 0, 0,
    0, 0, 0,
    0, 0, 0,
    0, 0, 0,
    0, 0, 0,
    0, 0, 0,
    0, 0, 0,
    0, 0, 0,
    0, 0, 0,
    0, 0, 0,
    0, 0, 0,
    0, 0, 0,
    0, 0, 0,
    0, 0, 0,
    0, 0, 0,
    0, 0, 0,
    0, 0, 0,
    0, 0, 0,
    0, 0, 0,
    0, 0, 0,
    0, 0, 0,
    0, 0, 0,
    0, 0, 0,
    0, 0, 0,
    0, 0, 0,
    0, 0, 0,
    0, 0, 0,
    0, 0, 0,
    0, 0, 0,
    0, 0, 0,
    0, 0, 0,
    0, 0, 0,
    0, 0, 0,
    0, 0, 0,
    0, 0, 0,
    0, 0, 0,
    0, 0, 0,
    0, 0, 0,
    0, 0, 0,
    0, 0, 0,
    0, 0, 0,
    0, 0, 0,
    0, 0, 0,
    0, 0, 0,
    0, 0, 0,
    0, 0, 0,
    0, 0, 0,
    0, 0, 0,
    0, 0, 0,
    0, 0, 0,
    0, 0, 0,
    0, 0, 0,
    0, 0, 0,
    0, 0, 0,
    0, 0, 0,
    0, 0, 0,
    0, 0, 0,
    0, 0, 0,
    0, 0, 0,
    0, 0, 0,
    0, 0, 0,
    0, 0, 0,
    0, 0, 0,
    0, 0, 0,
    0, 0, 0,
    0, 0, 0,
    0, 0, 0,
    0, 0, 0,
    0, 0, 0,
    0, 0, 0,
    0, 0, 0,
    0, 0, 0,
    0, 0, 0,
    0, 0, 0,
    0, 0, 0,
    0, 0, 0,
    0, 0, 0,
    0, 0, 0,
    0, 0, 0,
    0, 0, 0,
    0, 0, 0,
    0, 0, 0,
    0, 0, 0,
    0, 0, 0,
    0, 0, 0,
    0, 0, 0,
    0, 0, 0,
    0, 0, 0,
    0, 0, 0,
    0, 0, 0,
    0, 0, 0,
    0, 0, 0,
    0, 0, 0,
    0, 0, 0,
    0, 0, 0,
    0, 0, 0,
    0, 0, 0,
    0, 0, 0,
    0, 0, 0,
    0, 0, 0,
    0, 0, 0,
    0, 0, 0,
    0, 0, 0,
    0, 0, 0,
    0, 0, 0,
    0, 0, 0,
    0, 0, 0,
    0, 0, 0,
    0, 0, 0,
    0, 0, 0,
    0, 0, 0,
    0, 0, 0,
    0, 0, 0,
    0, 0, 0,
    0, 0, 0,
    0, 0, 0,
    0, 0, 0,
    0, 0, 0,
    0, 0, 0,
    0, 0, 0,
    0, 0, 0,
    0, 0, 0,
    0, 0, 0,
    0, 0, 0,
    0, 0, 0,
    0, 0, 0,
    0, 0, 0,
    0, 0, 0,
    0, 0, 0,
    0, 0, 0,
    0, 0, 0,
    0, 0, 0,
    0, 0, 0,
    0, 0, 0,
    0, 0, 0,
    0, 0, 0,
    0, 0, 0,
    0, 0, 0,
    0, 0, 0,
    0, 0, 0,
    0, 0, 0,
    0, 0, 0,
    0, 0, 0,
    0, 0, 0,
    0, 0, 0,
    0, 0, 0,
    0, 0, 0,
    0, 0, 0,
    0, 0, 0,
    0, 0, 0,
    0, 0, 0,
    0, 0, 0,
    0, 0, 0,
    0, 0, 0,
    0, 0, 0,
    0, 0, 0,
    0, 0, 0,
    0, 0, 0,
    0, 0, 0,
    0, 0, 0,
    0, 0, 0,
    0, 0, 0,
    0, 0, 0,
    0, 0, 0,
    0, 0, 0,
    0, 0, 0,
    0, 0, 0,
    0, 0, 0,
    0, 0, 0,
    0, 0, 0,
    0, 0, 0,
    0, 0, 0,
    0, 0, 0,
    0, 0, 0,
    0, 0, 0,
    0, 0, 0,
    0, 0, 0,
    0, 0, 0,
    0, 0, 0,
    0, 0, 0,
    0, 0, 0,
    0, 0, 0,
    0, 0, 0,
    0, 0, 0,
    0, 0, 0,
    0, 0, 0,
    0, 0, 0,
    0, 0, 0,
    0, 0, 0,
    0, 0, 0,
    0, 0, 0,
    0, 0, 0,
    0, 0, 0,
    0, 0, 0,
    0, 0, 0,
    0, 0, 0,
    0, 0, 0,
    0, 0, 0,
    0, 0, 0,
    0, 0, 0,
    0, 0, 0,
    0, 0, 0,
    0, 0, 0,
    0, 0, 0,
    0, 0, 0,
    0, 0, 0,
    0, 0, 0,
    0, 0, 0,
    0, 0, 0,
    0, 0, 0,
    0, 0, 0,
    0, 0, 0,
    0, 0, 0,
    0, 0, 0,
    0, 0, 0,
    0, 0, 0,
    0, 0, 0,
    0, 0, 0,
    0, 0, 0,
    0, 0, 0,
    0, 0, 0,
    0, 0, 0,
    0, 0, 0,
    0, 0, 0,
    0, 0, 0,
    0, 0, 0,
    0, 0, 0,
    0, 0, 0,
    0, 0, 0,
    0, 0, 0,
    0, 0, 0,
    0, 0, 0,
    0, 0, 0,
    0, 0, 0,
    0, 0, 0,
    0, 0, 0,
    0, 0, 0
]);
d_nfa = array3d(1..2, 1..394, 1..3, [
  % k = 1
    {3, 75, 138, 202, 257, 311, 380, 388}, {2, 74, 137, 201, 256, 310, 379, 387}, {2, 74, 137, 201, 256, 310, 379, 387},
    {3}, {2}, {2},
    {4}, {}, {},
    {5}, {}, {},
    {6}, {}, {},
    {7}, {}, {},
    {8}, {}, {},
    {9}, {}, {},
    {}, {10}, {10},
    {}, {11}, {11},
    {12}, {}, {},
    {13}, {}, {},
    {14}, {}, {},
    {15}, {}, {},
    {16}, {}, {},
    {17}, {}, {},
    {18}, {}, {},
    {}, {19}, {19},
    {}, {20}, {20},
    {21}, {}, {},
    {22}, {}, {},
    {23}, {}, {},
    {24}, {}, {},
    {25}, {}, {},
    {26}, {}, {},
    {27}, {}, {},
    {}, {28}, {28},
    {}, {29}, {29},
    {30}, {}, {},
    {31}, {}, {},
    {32}, {}, {},
    {33}, {}, {},
    {34}, {}, {},
    {35}, {}, {},
    {36}, {}, {},
    {}, {37}, {37},
    {}, {38}, {38},
    {39}, {}, {},
    {40}, {}, {},
    {41}, {}, {},
    {42}, {}, {},
    {43}, {}, {},
    {44}, {}, {},
    {45}, {}, {},
    {}, {46}, {46},
    {}, {47}, {47},
    {48}, {}, {},
    {49}, {}, {},
    {50}, {}, {},
    {51}, {}, {},
    {52}, {}, {},
    {53}, {}, {},
    {54}, {}, {},
    {}, {55}, {55},
    {}, {56}, {56},
    {57}, {}, {},
    {58}, {}, {},
    {59}, {}, {},
    {60}, {}, {},
    {61}, {}, {},
    {62}, {}, {},
    {63}, {}, {},
    {}, {64}, {64},
    {}, {65}, {65},
    {66}, {}, {},
    {67}, {}, {},
    {68}, {}, {},
    {69}, {}, {},
    {70}, {}, {},
    {71}, {}, {},
    {72}, {}, {},
    {73}, {}, {},
    {}, {73}, {73},
    {75}, {74}, {74},
    {76}, {}, {},
    {77}, {}, {},
    {78}, {}, {},
    {79}, {}, {},
    {80}, {}, {},
    {81}, {}, {},
    {82}, {}, {},
    {}, {83}, {83},
    {84}, {}, {},
    {85}, {}, {},
    {86}, {}, {},
    {87}, {}, {},
    {88}, {}, {},
    {89}, {}, {},
    {90}, {}, {},
    {91}, {}, {},
    {}, {92}, {92},
    {93}, {}, {},
    {94}, {}, {},
    {95}, {}, {},
    {96}, {}, {},
    {97}, {}, {},
    {98}, {}, {},
    {99}, {}, {},
    {100}, {}, {},
    {}, {101}, {101},
    {102}, {}, {},
    {103}, {}, {},
    {104}, {}, {},
    {105}, {}, {},
    {106}, {}, {},
    {107}, {}, {},
    {108}, {}, {},
    {109}, {}, {},
    {}, {110}, {110},
    {111}, {}, {},
    {112}, {}, {},
    {113}, {}, {},
    {114}, {}, {},
    {115}, {}, {},
    {116}, {}, {},
    {117}, {}, {},
    {118}, {}, {},
    {}, {119}, {119},
    {120}, {}, {},
    {121}, {}, {},
    {122}, {}, {},
    {123}, {}, {},
    {124}, {}, {},
    {125}, {}, {},
    {126}, {}, {},
    {127}, {}, {},
    {}, {128}, {128},
    {129}, {}, {},
    {130}, {}, {},
    {131}, {}, {},
    {132}, {}, {},
    {133}, {}, {},
    {134}, {}, {},
    {135}, {}, {},
    {136}, {}, {},
    {}, {72}, {72},
    {138}, {137}, {137},
    {139}, {}, {},
    {140}, {}, {},
    {141}, {}, {},
    {142}, {}, {},
    {143}, {}, {},
    {144}, {}, {},
    {145}, {}, {},
    {}, {146}, {146},
    {}, {147}, {147},
    {148}, {}, {},
    {149}, {}, {},
    {150}, {}, {},
    {151}, {}, {},
    {152}, {}, {},
    {153}, {}, {},
    {154}, {}, {},
    {}, {155}, {155},
    {}, {156}, {156},
    {157}, {}, {},
    {158}, {}, {},
    {159}, {}, {},
    {160}, {}, {},
    {161}, {}, {},
    {162}, {}, {},
    {163}, {}, {},
    {}, {164}, {164},
    {}, {165}, {165},
    {166}, {}, {},
    {167}, {}, {},
    {168}, {}, {},
    {169}, {}, {},
    {170}, {}, {},
    {171}, {}, {},
    {172}, {}, {},
    {}, {173}, {173},
    {}, {174}, {174},
    {175}, {}, {},
    {176}, {}, {},
    {177}, {}, {},
    {178}, {}, {},
    {179}, {}, {},
    {180}, {}, {},
    {181}, {}, {},
    {}, {182}, {182},
    {}, {183}, {183},
    {184}, {}, {},
    {185}, {}, {},
    {186}, {}, {},
    {187}, {}, {},
    {188}, {}, {},
    {189}, {}, {},
    {190}, {}, {},
    {}, {191}, {191},
    {}, {192}, {192},
    {193}, {}, {},
    {194}, {}, {},
    {195}, {}, {},
    {196}, {}, {},
    {197}, {}, {},
    {198}, {}, {},
    {199}, {}, {},
    {}, {200}, {200},
    {}, {66}, {66},
    {202}, {201}, {201},
    {}, {203}, {203},
    {204}, {}, {},
    {205}, {}, {},
    {206}, {}, {},
    {207}, {}, {},
    {208}, {}, {},
    {209}, {}, {},
    {210}, {}, {},
    {211}, {}, {},
    {}, {212}, {212},
    {213}, {}, {},
    {214}, {}, {},
    {215}, {}, {},
    {216}, {}, {},
    {217}, {}, {},
    {218}, {}, {},
    {219}, {}, {},
    {220}, {}, {},
    {}, {221}, {221},
    {222}, {}, {},
    {223}, {}, {},
    {224}, {}, {},
    {225}, {}, {},
    {226}, {}, {},
    {227}, {}, {},
    {228}, {}, {},
    {229}, {}, {},
    {}, {230}, {230},
    {231}, {}, {},
    {232}, {}, {},
    {233}, {}, {},
    {234}, {}, {},
    {235}, {}, {},
    {236}, {}, {},
    {237}, {}, {},
    {238}, {}, {},
    {}, {239}, {239},
    {240}, {}, {},
    {241}, {}, {},
    {242}, {}, {},
    {243}, {}, {},
    {244}, {}, {},
    {245}, {}, {},
    {246}, {}, {},
    {247}, {}, {},
    {}, {248}, {248},
    {249}, {}, {},
    {250}, {}, {},
    {251}, {}, {},
    {252}, {}, {},
    {253}, {}, {},
    {254}, {}, {},
    {255}, {}, {},
    {64}, {}, {},
    {257}, {256}, {256},
    {258}, {}, {},
    {259}, {}, {},
    {260}, {}, {},
    {261}, {}, {},
    {262}, {}, {},
    {263}, {}, {},
    {}, {264}, {264},
    {}, {265}, {265},
    {266}, {}, {},
    {267}, {}, {},
    {268}, {}, {},
    {269}, {}, {},
    {270}, {}, {},
    {271}, {}, {},
    {272}, {}, {},
    {}, {273}, {273},
    {}, {274}, {274},
    {275}, {}, {},
    {276}, {}, {},
    {277}, {}, {},
    {278}, {}, {},
    {279}, {}, {},
    {280}, {}, {},
    {281}, {}, {},
    {}, {282}, {282},
    {}, {283}, {283},
    {284}, {}, {},
    {285}, {}, {},
    {286}, {}, {},
    {287}, {}, {},
    {288}, {}, {},
    {289}, {}, {},
    {290}, {}, {},
    {}, {291}, {291},
    {}, {292}, {292},
    {293}, {}, {},
    {294}, {}, {},
    {295}, {}, {},
    {296}, {}, {},
    {297}, {}, {},
    {298}, {}, {},
    {299}, {}, {},
    {}, {300}, {300},
    {}, {301}, {301},
    {302}, {}, {},
    {303}, {}, {},
    {304}, {}, {},
    {305}, {}, {},
    {306}, {}, {},
    {307}, {}, {},
    {308}, {}, {},
    {}, {309}, {309},
    {}, {249}, {249},
    {311}, {310}, {310},
    {312}, {}, {},
    {313}, {}, {},
    {314}, {}, {},
    {315}, {}, {},
    {316}, {}, {},
    {317}, {}, {},
    {318}, {}, {},
    {}, {319}, {319},
    {320}, {}, {},
    {321}, {}, {},
    {322}, {}, {},
    {323}, {}, {},
    {324}, {}, {},
    {325}, {}, {},
    {326}, {}, {},
    {327}, {}, {},
    {}, {328}, {328},
    {329}, {}, {},
    {330}, {}, {},
    {331}, {}, {},
    {332}, {}, {},
    {333}, {}, {},
    {334}, {}, {},
    {335}, {}, {},
    {336}, {}, {},
    {}, {337}, {337},
    {338}, {}, {},
    {339}, {}, {},
    {340}, {}, {},
    {341}, {}, {},
    {342}, {}, {},
    {343}, {}, {},
    {344}, {}, {},
    {345}, {}, {},
    {}, {346}, {346},
    {347}, {}, {},
    {348}, {}, {},
    {349}, {}, {},
    {350}, {}, {},
    {351}, {}, {},
    {352}, {}, {},
    {353}, {}, {},
    {354}, {}, {},
    {}, {355}, {355},
    {356}, {}, {},
    {357}, {}, {},
    {358}, {}, {},
    {359}, {}, {},
    {360}, {}, {},
    {361}, {}, {},
    {362}, {}, {},
    {363}, {}, {},
    {}, {364}, {364},
    {365}, {}, {},
    {366}, {}, {},
    {367}, {}, {},
    {368}, {}, {},
    {369}, {}, {},
    {370}, {}, {},
    {371}, {}, {},
    {372}, {}, {},
    {}, {373}, {373},
    {}, {374}, {374},
    {}, {375}, {375},
    {}, {376}, {376},
    {}, {377}, {377},
    {}, {378}, {378},
    {}, {136}, {136},
    {380}, {379}, {379},
    {381}, {}, {},
    {382}, {}, {},
    {383}, {}, {},
    {384}, {}, {},
    {385}, {}, {},
    {386}, {}, {},
    {146}, {}, {},
    {388}, {387}, {387},
    {}, {389}, {389},
    {}, {390}, {390},
    {}, {391}, {391},
    {}, {392}, {392},
    {}, {393}, {393},
    {}, {394}, {394},
    {}, {202}, {202},

  % k = 2
    {2, 58}, {3, 59}, {2, 58},
    {2}, {3}, {2},
    {4}, {}, {4},
    {5}, {}, {5},
    {6}, {}, {6},
    {7}, {}, {7},
    {8}, {}, {8},
    {9}, {}, {9},
    {10}, {}, {10},
    {11}, {}, {11},
    {}, {12}, {},
    {13}, {}, {13},
    {14}, {}, {14},
    {15}, {}, {15},
    {16}, {}, {16},
    {17}, {}, {17},
    {18}, {}, {18},
    {19}, {}, {19},
    {20}, {}, {20},
    {}, {21}, {},
    {22}, {}, {22},
    {23}, {}, {23},
    {24}, {}, {24},
    {25}, {}, {25},
    {26}, {}, {26},
    {27}, {}, {27},
    {28}, {}, {28},
    {29}, {}, {29},
    {}, {30}, {},
    {31}, {}, {31},
    {32}, {}, {32},
    {33}, {}, {33},
    {34}, {}, {34},
    {35}, {}, {35},
    {36}, {}, {36},
    {37}, {}, {37},
    {38}, {}, {38},
    {}, {39}, {},
    {40}, {}, {40},
    {41}, {}, {41},
    {42}, {}, {42},
    {43}, {}, {43},
    {44}, {}, {44},
    {45}, {}, {45},
    {46}, {}, {46},
    {47}, {}, {47},
    {}, {48}, {},
    {49}, {}, {49},
    {50}, {}, {50},
    {51}, {}, {51},
    {52}, {}, {52},
    {53}, {}, {53},
    {54}, {}, {54},
    {55}, {}, {55},
    {56}, {}, {56},
    {}, {57}, {},
    {57}, {}, {57},
    {58}, {59}, {58},
    {}, {60}, {},
    {}, {61}, {},
    {}, {62}, {},
    {}, {63}, {},
    {}, {56}, {},
    {}, {}, {},
    {}, {}, {},
    {}, {}, {},
    {}, {}, {},
    {}, {}, {},
    {}, {}, {},
    {}, {}, {},
    {}, {}, {},
    {}, {}, {},
    {}, {}, {},
    {}, {}, {},
    {}, {}, {},
    {}, {}, {},
    {}, {}, {},
    {}, {}, {},
    {}, {}, {},
    {}, {}, {},
    {}, {}, {},
    {}, {}, {},
    {}, {}, {},
    {}, {}, {},
    {}, {}, {},
    {}, {}, {},
    {}, {}, {},
    {}, {}, {},
    {}, {}, {},
    {}, {}, {},
    {}, {}, {},
    {}, {}, {},
    {}, {}, {},
    {}, {}, {},
    {}, {}, {},
    {}, {}, {},
    {}, {}, {},
    {}, {}, {},
    {}, {}, {},
    {}, {}, {},
    {}, {}, {},
    {}, {}, {},
    {}, {}, {},
    {}, {}, {},
    {}, {}, {},
    {}, {}, {},
    {}, {}, {},
    {}, {}, {},
    {}, {}, {},
    {}, {}, {},
    {}, {}, {},
    {}, {}, {},
    {}, {}, {},
    {}, {}, {},
    {}, {}, {},
    {}, {}, {},
    {}, {}, {},
    {}, {}, {},
    {}, {}, {},
    {}, {}, {},
    {}, {}, {},
    {}, {}, {},
    {}, {}, {},
    {}, {}, {},
    {}, {}, {},
    {}, {}, {},
    {}, {}, {},
    {}, {}, {},
    {}, {}, {},
    {}, {}, {},
    {}, {}, {},
    {}, {}, {},
    {}, {}, {},
    {}, {}, {},
    {}, {}, {},
    {}, {}, {},
    {}, {}, {},
    {}, {}, {},
    {}, {}, {},
    {}, {}, {},
    {}, {}, {},
    {}, {}, {},
    {}, {}, {},
    {}, {}, {},
    {}, {}, {},
    {}, {}, {},
    {}, {}, {},
    {}, {}, {},
    {}, {}, {},
    {}, {}, {},
    {}, {}, {},
    {}, {}, {},
    {}, {}, {},
    {}, {}, {},
    {}, {}, {},
    {}, {}, {},
    {}, {}, {},
    {}, {}, {},
    {}, {}, {},
    {}, {}, {},
    {}, {}, {},
    {}, {}, {},
    {}, {}, {},
    {}, {}, {},
    {}, {}, {},
    {}, {}, {},
    {}, {}, {},
    {}, {}, {},
    {}, {}, {},
    {}, {}, {},
    {}, {}, {},
    {}, {}, {},
    {}, {}, {},
    {}, {}, {},
    {}, {}, {},
    {}, {}, {},
    {}, {}, {},
    {}, {}, {},
    {}, {}, {},
    {}, {}, {},
    {}, {}, {},
    {}, {}, {},
    {}, {}, {},
    {}, {}, {},
    {}, {}, {},
    {}, {}, {},
    {}, {}, {},
    {}, {}, {},
    {}, {}, {},
    {}, {}, {},
    {}, {}, {},
    {}, {}, {},
    {}, {}, {},
    {}, {}, {},
    {}, {}, {},
    {}, {}, {},
    {}, {}, {},
    {}, {}, {},
    {}, {}, {},
    {}, {}, {},
    {}, {}, {},
    {}, {}, {},
    {}, {}, {},
    {}, {}, {},
    {}, {}, {},
    {}, {}, {},
    {}, {}, {},
    {}, {}, {},
    {}, {}, {},
    {}, {}, {},
    {}, {}, {},
    {}, {}, {},
    {}, {}, {},
    {}, {}, {},
    {}, {}, {},
    {}, {}, {},
    {}, {}, {},
    {}, {}, {},
    {}, {}, {},
    {}, {}, {},
    {}, {}, {},
    {}, {}, {},
    {}, {}, {},
    {}, {}, {},
    {}, {}, {},
    {}, {}, {},
    {}, {}, {},
    {}, {}, {},
    {}, {}, {},
    {}, {}, {},
    {}, {}, {},
    {}, {}, {},
    {}, {}, {},
    {}, {}, {},
    {}, {}, {},
    {}, {}, {},
    {}, {}, {},
    {}, {}, {},
    {}, {}, {},
    {}, {}, {},
    {}, {}, {},
    {}, {}, {},
    {}, {}, {},
    {}, {}, {},
    {}, {}, {},
    {}, {}, {},
    {}, {}, {},
    {}, {}, {},
    {}, {}, {},
    {}, {}, {},
    {}, {}, {},
    {}, {}, {},
    {}, {}, {},
    {}, {}, {},
    {}, {}, {},
    {}, {}, {},
    {}, {}, {},
    {}, {}, {},
    {}, {}, {},
    {}, {}, {},
    {}, {}, {},
    {}, {}, {},
    {}, {}, {},
    {}, {}, {},
    {}, {}, {},
    {}, {}, {},
    {}, {}, {},
    {}, {}, {},
    {}, {}, {},
    {}, {}, {},
    {}, {}, {},
    {}, {}, {},
    {}, {}, {},
    {}, {}, {},
    {}, {}, {},
    {}, {}, {},
    {}, {}, {},
    {}, {}, {},
    {}, {}, {},
    {}, {}, {},
    {}, {}, {},
    {}, {}, {},
    {}, {}, {},
    {}, {}, {},
    {}, {}, {},
    {}, {}, {},
    {}, {}, {},
    {}, {}, {},
    {}, {}, {},
    {}, {}, {},
    {}, {}, {},
    {}, {}, {},
    {}, {}, {},
    {}, {}, {},
    {}, {}, {},
    {}, {}, {},
    {}, {}, {},
    {}, {}, {},
    {}, {}, {},
    {}, {}, {},
    {}, {}, {},
    {}, {}, {},
    {}, {}, {},
    {}, {}, {},
    {}, {}, {},
    {}, {}, {},
    {}, {}, {},
    {}, {}, {},
    {}, {}, {},
    {}, {}, {},
    {}, {}, {},
    {}, {}, {},
    {}, {}, {},
    {}, {}, {},
    {}, {}, {},
    {}, {}, {},
    {}, {}, {},
    {}, {}, {},
    {}, {}, {},
    {}, {}, {},
    {}, {}, {},
    {}, {}, {},
    {}, {}, {},
    {}, {}, {},
    {}, {}, {},
    {}, {}, {},
    {}, {}, {},
    {}, {}, {},
    {}, {}, {},
    {}, {}, {},
    {}, {}, {},
    {}, {}, {},
    {}, {}, {},
    {}, {}, {},
    {}, {}, {},
    {}, {}, {},
    {}, {}, {},
    {}, {}, {},
    {}, {}, {},
    {}, {}, {},
    {}, {}, {},
    {}, {}, {},
    {}, {}, {},
    {}, {}, {},
    {}, {}, {},
    {}, {}, {},
    {}, {}, {},
    {}, {}, {},
    {}, {}, {},
    {}, {}, {},
    {}, {}, {},
    {}, {}, {},
    {}, {}, {},
    {}, {}, {},
    {}, {}, {},
    {}, {}, {},
    {}, {}, {},
    {}, {}, {},
    {}, {}, {},
    {}, {}, {},
    {}, {}, {},
    {}, {}, {},
    {}, {}, {},
    {}, {}, {},
    {}, {}, {},
    {}, {}, {},
    {}, {}, {},
    {}, {}, {},
    {}, {}, {},
    {}, {}, {},
    {}, {}, {},
    {}, {}, {},
    {}, {}, {},
    {}, {}, {},
    {}, {}, {},
    {}, {}, {},
    {}, {}, {},
    {}, {}, {},
    {}, {}, {},
    {}, {}, {},
    {}, {}, {},
    {}, {}, {},
    {}, {}, {},
    {}, {}, {},
    {}, {}, {},
    {}, {}, {},
    {}, {}, {},
    {}, {}, {},
    {}, {}, {},
    {}, {}, {},
    {}, {}, {},
    {}, {}, {},
    {}, {}, {},
    {}, {}, {}
]);
